
328
750
   598      2
   596      1
   595      1
   594      1
   593      1
   592      2
   591      2
   590      1
   589      1
   587      3
   586      1
   585      1
   581      2
   579      1
   578      3
   577      2
   575      2
   573      2
   571      1
   569      2
   568      1
   567      1
   564      1
   557      2
   555      1
   553      3
   547      1
   546      3
   545      1
   544      2
   543      2
   542      3
   541      1
   540      1
   538      1
   537      1
   536      1
   535      1
   533      1
   532      1
   530      1
   526      1
   525      1
   524      1
   515      1
   511      1
   510      2
   509      1
   508      1
   507      2
   506      1
   505      1
   498      1
   495      1
   494      2
   493      2
   491      2
   490      1
   489      1
   488      2
   487      1
   484      1
   483      1
   482      2
   479      1
   477      2
   476      1
   475      1
   474      3
   473      2
   472      1
   471      2
   470      5
   469      1
   466      3
   464      2
   462      1
   461      2
   459      1
   457      2
   456      1
   455      3
   454      1
   453      1
   452      1
   450      4
   447      1
   445      1
   443      1
   442      2
   441      2
   439      1
   438      1
   437      1
   436      1
   433      1
   432      1
   429      3
   428      1
   426      4
   425      3
   423      1
   422      1
   421      1
   420      1
   419      1
   415      1
   413      3
   412      2
   410      3
   409      3
   408      1
   405      2
   404      1
   403      1
   401      1
   400      3
   399      1
   398      2
   396      2
   395      3
   394      1
   393      2
   392      2
   391      1
   390      1
   389      2
   386      1
   384      3
   381      1
   380      3
   379      1
   377      1
   375      1
   374      1
   372      1
   368      1
   366      1
   364      1
   363      1
   362      1
   361      3
   360      1
   359      1
   358      2
   356      2
   354      1
   353      2
   350      2
   348      1
   346      1
   345      2
   340      1
   337      1
   335      1
   330      2
   327      1
   326      1
   324      1
   323      1
   321      1
   320      2
   319      1
   318      1
   316      1
   315      2
   314      1
   313      3
   312      1
   310      1
   307      1
   306      1
   305      2
   302      2
   301      1
   300      1
   299      1
   297      1
   296      2
   295      5
   294      1
   293      1
   292      2
   291      1
   290      1
   288      3
   287      2
   284      1
   283      1
   278      2
   277      1
   275      3
   273      2
   271      1
   270      1
   269      1
   268      1
   266      3
   265      4
   264      1
   262      3
   261      1
   259      2
   258      2
   257      1
   256      2
   255      1
   254      1
   253      1
   249      2
   246      3
   245      1
   242      1
   240      3
   239      2
   238      1
   237      4
   236      1
   234      2
   233      2
   232      1
   231      1
   230      1
   229      2
   228      2
   227      2
   220      1
   219      2
   218      1
   217      2
   215      2
   214      1
   213      1
   212      1
   211      3
   209      2
   208      1
   207      2
   206      2
   205      1
   203      2
   202      1
   201      1
   200      1
   199      1
   198      1
   197      1
   195      1
   193      1
   191      1
   190      1
   189      1
   188      1
   187      1
   184      4
   183      1
   182      2
   181      1
   180      1
   179      1
   177      1
   176      1
   175      1
   174      1
   173      2
   172      1
   170      3
   168      1
   166      1
   163      3
   162      2
   160      1
   159      1
   158      3
   156      1
   155      1
   153      2
   152      1
   151      1
   149      1
   147      2
   146      1
   143      1
   140      1
   139      1
   136      2
   134      2
   133      1
   132      1
   131      2
   130      1
   129      2
   127      3
   125      1
   122      2
   120      2
   118      1
   117      1
   116      2
   114      1
   113      1
   112      1
   109      1
   107      1
   106      2
   105      3
   104      1
   103      1
   100      1
    99      1
    98      1
    96      1
    95      3
    93      3
    92      3
    91      1
    89      1
    88      2
    87      1
    85      3
    84      1
    82      1
    81      1
    80      1
    79      1
    78      1
    77      1
    76      1




The initial LP solution: time=0.69


File: BPP_500_750_0.1_0.8_3.txt  Instance No. 1
Wed Feb 25 13:43:03 2015

LP solution: lpval=219.3278911564626 lpbnd=220

1: 0:1 277:1 obj 1\\
1: 0:1 278:1 obj 1\\
1: 1:1 276:1 obj 1\\
1: 2:1 275:1 obj 1\\
1: 3:1 274:1 obj 1\\
1: 4:1 276:1 obj 1\\
2: 5:1 273:1 obj 1\\
1: 6:1 272:1 obj 1\\
1: 6:1 273:1 obj 1\\
1: 7:1 271:1 obj 1\\
0.9306122448979597: 8:1 319:1 327:1 obj 1\\
2: 9:1 269:1 obj 1\\
1: 10:1 270:1 obj 1\\
1: 12:1 267:1 obj 1\\
1: 13:1 266:1 obj 1\\
1: 14:1 265:1 obj 1\\
2: 15:1 264:1 obj 1\\
1: 16:1 262:1 obj 1\\
1: 16:1 263:1 obj 1\\
1: 17:1 260:1 obj 1\\
1: 17:1 261:1 obj 1\\
1: 18:1 259:1 obj 1\\
1: 19:1 257:1 obj 1\\
1: 20:1 256:1 obj 1\\
1: 21:1 255:1 obj 1\\
1: 22:1 254:1 obj 1\\
1: 23:1 248:1 obj 1\\
1: 24:1 247:1 obj 1\\
1: 25:1 246:1 obj 1\\
1: 26:1 240:1 obj 1\\
1: 27:1 241:1 obj 1\\
1: 27:1 242:1 obj 1\\
1: 28:1 239:1 obj 1\\
2: 29:1 238:1 obj 1\\
2: 30:1 237:1 obj 1\\
1: 31:1 236:1 obj 1\\
1: 32:1 235:1 obj 1\\
1: 34:1 233:1 obj 1\\
1: 35:1 232:1 obj 1\\
1: 36:1 231:1 obj 1\\
1: 37:1 230:1 obj 1\\
1: 38:1 229:1 obj 1\\
1: 39:1 228:1 obj 1\\
1: 40:1 226:1 obj 1\\
1: 44:1 218:1 obj 1\\
1: 45:1 214:1 obj 1\\
2: 46:1 213:1 obj 1\\
1: 47:1 213:1 obj 1\\
1: 48:1 212:1 obj 1\\
1: 49:1 214:1 obj 1\\
1: 51:1 211:1 obj 1\\
1: 52:1 209:1 obj 1\\
1: 53:1 206:1 obj 1\\
2: 54:1 205:1 obj 1\\
1: 55:1 204:1 obj 1\\
1: 55:1 207:1 obj 1\\
2: 56:1 202:1 obj 1\\
1: 57:1 203:1 obj 1\\
1: 58:1 201:1 obj 1\\
2: 59:1 200:1 obj 1\\
1: 60:1 200:1 obj 1\\
1: 61:1 197:1 obj 1\\
1: 62:1 197:1 obj 1\\
1: 63:1 196:1 obj 1\\
1: 63:1 197:1 obj 1\\
1: 64:1 193:1 obj 1\\
2: 65:1 192:1 obj 1\\
1: 66:1 194:1 obj 1\\
1: 67:1 191:1 obj 1\\
0.04455782312925179: 68:1 254:1 314:1 obj 1\\
1: 69:1 190:1 obj 1\\
1: 70:1 189:1 obj 1\\
0.2374149659863946: 71:1 252:1 315:1 obj 1\\
1: 72:1 254:1 311:1 obj 1\\
1: 74:1 187:1 obj 1\\
1: 76:1 185:1 obj 1\\
1: 78:1 183:1 obj 1\\
1: 79:1 181:1 obj 1\\
1: 80:1 180:1 obj 1\\
3: 81:1 179:1 obj 1\\
1: 82:1 178:1 obj 1\\
1: 83:1 177:1 obj 1\\
1: 85:1 175:1 obj 1\\
0.9836734693877535: 85:1 179:1 obj 1\\
1: 86:1 173:1 obj 1\\
1: 87:1 172:1 obj 1\\
1: 88:1 170:1 obj 1\\
1: 89:1 171:1 obj 1\\
1: 89:1 172:1 obj 1\\
0.9554421768707482: 90:1 234:1 310:1 obj 1\\
1: 91:1 169:1 obj 1\\
1: 92:1 168:1 obj 1\\
1: 93:1 167:1 obj 1\\
1: 94:1 166:1 obj 1\\
1: 95:1 164:1 obj 1\\
1: 96:1 163:1 obj 1\\
1: 97:1 160:1 obj 1\\
2: 97:1 161:1 obj 1\\
1: 98:1 162:1 obj 1\\
1: 99:1 158:1 obj 1\\
1: 99:1 159:1 obj 1\\
0.8476190476190466: 100:1 220:1 313:1 obj 1\\
1: 101:1 156:1 obj 1\\
1: 102:1 157:1 obj 1\\
1: 104:1 155:1 obj 1\\
1: 105:1 155:1 obj 1\\
1: 106:1 154:1 obj 1\\
1: 107:1 153:1 obj 1\\
0.1095238095238095: 107:1 208:1 320:1 obj 1\\
0.9700680272108843: 108:1 219:1 305:1 obj 1\\
1: 109:1 152:1 obj 1\\
0.8261904761904769: 109:1 216:1 307:1 obj 1\\
1.405442176870749: 110:1 210:1 312:1 obj 1\\
0.5544217687074841: 110:1 223:1 301:1 obj 1\\
2: 112:1 151:1 obj 1\\
1: 113:1 150:1 obj 1\\
1: 115:1 149:1 obj 1\\
2: 116:1 148:1 obj 1\\
0.5986394557823135: 118:1 225:1 293:1 obj 1\\
2: 119:1 147:1 obj 1\\
0.6972789115646258: 120:1 224:1 292:1 obj 1\\
1: 121:1 145:1 obj 1\\
2: 123:1 144:1 obj 1\\
1: 124:1 143:1 obj 1\\
1: 125:1 142:1 obj 1\\
2: 126:1 141:1 obj 1\\
1: 128:1 137:1 obj 1\\
1: 129:1 136:1 obj 1\\
1: 132:1 135:1 obj 1\\
1: 133:1 134:1 obj 1\\
0.8115646258503386: 165:2 295:1 obj 1\\
1: 127:1 139:1 obj 1\\
1: 11:1 269:1 obj 1\\
1: 74:1 188:1 obj 1\\
1: 85:1 176:1 obj 1\\
1: 128:1 140:1 obj 1\\
0.2040816326530598: 50:1 290:1 299:1 obj 1\\
2: 77:1 185:1 obj 1\\
0.1292517006802713: 109:1 225:1 300:1 obj 1\\
0.8962585034013599: 111:1 230:1 292:1 obj 1\\
0.9357142857142859: 120:1 227:1 285:1 obj 1\\
0.06938775510204032: 8:1 321:1 324:1 obj 1\\
1: 71:1 189:1 obj 1\\
1: 84:1 178:1 obj 1\\
1: 107:1 221:1 304:1 obj 1\\
0.1738095238095235: 122:1 195:1 317:1 obj 1\\
0.5013605442176863: 75:1 256:1 306:1 obj 1\\
0.4306122448979597: 203:2 218:1 obj 1\\
1: 12:1 268:1 obj 1\\
1: 19:1 258:1 obj 1\\
1: 27:1 240:1 obj 1\\
0.5057823129251693: 69:1 254:1 313:1 obj 1\\
0.6102040816326522: 72:1 280:1 287:1 obj 1\\
0.5156462585033988: 99:1 223:1 312:1 obj 1\\
1.044557823129252: 109:1 234:1 291:1 obj 1\\
1: 118:1 198:1 318:1 obj 1\\
1: 128:1 138:1 obj 1\\
1: 9:1 270:1 obj 1\\
0.9306122448979597: 25:1 296:1 324:1 obj 1\\
1: 33:1 235:1 obj 1\\
0.004421768707482593: 42:1 293:1 308:1 obj 1\\
0.7625850340136054: 72:1 252:1 314:1 obj 1\\
1: 79:1 182:1 obj 1\\
0.1095238095238095: 103:1 244:1 290:1 obj 1\\
0.5986394557823135: 130:1 199:1 304:1 obj 1\\
0.06938775510204032: 130:1 217:1 286:1 obj 1\\
2: 14:1 266:1 obj 1\\
0.1972789115646248: 25:1 305:1 314:1 obj 1\\
0.8261904761904769: 41:1 297:1 303:1 obj 1\\
0.3897959183673478: 43:1 287:1 313:1 obj 1\\
2: 68:1 191:1 obj 1\\
0.418027210884353: 71:1 279:1 290:1 obj 1\\
1: 72:1 281:1 286:1 obj 1\\
1: 73:1 251:1 314:1 obj 1\\
0.6615646258503394: 85:1 254:1 298:1 obj 1\\
0.396938775510204: 99:1 244:1 293:1 obj 1\\
0.6326530612244916: 110:1 225:1 299:1 obj 1\\
1: 122:1 145:1 obj 1\\
0.8261904761904769: 130:1 215:1 288:1 obj 1\\
1: 167:1 174:1 285:1 obj 1\\
0.7670068027210886: 31:1 300:1 312:1 obj 1\\
0.9357142857142859: 72:1 253:1 313:1 obj 1\\
0.2510204081632668: 85:1 243:1 308:1 obj 1\\
0.1523809523809534: 99:1 220:1 314:1 obj 1\\
0.3955782312925172: 100:1 218:1 315:1 obj 1\\
0.1775510204081634: 107:1 219:1 306:1 obj 1\\
1: 120:1 146:1 obj 1\\
0.5057823129251693: 130:1 225:1 282:1 obj 1\\
1: 23:1 249:1 obj 1\\
0.4986394557823137: 90:1 256:1 292:1 obj 1\\
0.8261904761904765: 100:1 216:1 317:1 obj 1\\
0.203741496598639: 108:1 244:1 284:1 obj 1\\
1: 116:1 198:1 319:1 obj 1\\
0.4013605442176865: 118:1 210:1 304:1 obj 1\\
0.8904761904761905: 131:1 186:1 320:1 obj 1\\
0.1095238095238095: 131:1 209:1 294:1 obj 1\\
0.9357142857142859: 141:1 184:1 309:1 obj 1\\
0.02755102040816293: 25:1 301:1 319:1 obj 1\\
0.581972789115647: 49:1 292:1 298:1 obj 1\\
0.06088435374149598: 50:1 284:1 305:1 obj 1\\
0.9554421768707482: 68:1 280:1 291:1 obj 1\\
0.7445578231292507: 74:1 254:1 308:1 obj 1\\
0.4765306122448977: 90:1 224:1 322:1 obj 1\\
0.9350340136054437: 99:1 227:1 305:1 obj 1\\
0.8904761904761905: 103:1 209:1 323:1 obj 1\\
0.6435374149659867: 107:1 229:1 295:1 obj 1\\
0.1738095238095231: 110:1 218:1 303:1 obj 1\\
0.5448979591836745: 122:1 216:1 295:1 obj 1\\
1: 130:1 182:1 325:1 obj 1\\
1: 179:1 198:1 250:1 obj 1\\
0.06428571428571411: 184:1 219:1 225:1 obj 1\\
0.5234693877551022: 25:1 298:1 322:1 obj 1\\
1: 31:1 289:1 326:1 obj 1\\
0.682653061224488: 42:1 283:1 319:1 obj 1\\
0.4363945578231291: 43:1 286:1 314:1 obj 1\\
0.7350340136054442: 50:1 294:2 obj 1\\
0.04353741496598695: 71:1 254:1 312:1 obj 1\\
0.2554421768707493: 74:1 244:1 319:1 obj 1\\
0.9306122448979597: 100:1 217:1 316:1 obj 1\\
0.8261904761904769: 108:1 223:1 302:1 obj 1\\
0.06938775510204032: 114:1 203:1 316:1 obj 1\\
0.281292517006802: 122:1 222:1 292:1 obj 1\\
0.06428571428571411: 141:1 208:1 285:1 obj 1\\
0.6394557823129238: 167:1 216:1 243:1 obj 1\\
1: 173:1 216:1 234:1 obj 1\\
0.3564625850340132: 186:1 210:1 229:1 obj 1\\
0.8261904761904765: 195:1 208:1 224:1 obj 1\\
0.1738095238095231: 41:1 288:1 314:1 obj 1\\
0.2683673469387776: 42:1 290:1 312:1 obj 1\\
0.1738095238095231: 43:1 297:1 302:1 obj 1\\
0.418027210884353: 49:1 289:1 301:1 obj 1\\
0.4942176870748307: 69:1 282:1 286:1 obj 1\\
0.3010204081632655: 71:1 283:1 284:1 obj 1\\
0.1095238095238095: 72:1 243:1 323:1 obj 1\\
1: 75:1 245:1 317:1 obj 1\\
0.06938775510204032: 107:1 227:1 296:1 obj 1\\
0.1738095238095231: 110:1 215:1 307:1 obj 1\\
0.1037414965986401: 111:1 223:1 300:1 obj 1\\
0.9306122448979597: 114:1 198:1 321:1 obj 1\\
0.1632653061224486: 117:1 216:1 299:1 obj 1\\
0.3670068027210882: 120:1 199:1 315:1 obj 1\\
0.3605442176870762: 165:1 167:1 294:1 obj 1\\
0.718707482993198: 186:1 219:1 222:1 obj 1\\
0.3210884353741503: 25:1 306:1 313:1 obj 1\\
0.2329931972789114: 31:1 298:1 314:1 obj 1\\
0.04455782312925179: 42:1 292:1 310:1 obj 1\\
0.581972789115647: 72:1 279:1 289:1 obj 1\\
0.06428571428571411: 75:1 253:1 309:1 obj 1\\
0.4343537414965996: 75:1 280:1 284:1 obj 1\\
0.1037414965986401: 85:1 230:1 319:1 obj 1\\
0.06938775510204032: 90:1 219:1 327:1 obj 1\\
0.05986394557823005: 110:1 227:1 294:1 obj 1\\
0.8367346938775514: 117:1 210:1 305:1 obj 1\\
0.03435374149659831: 186:1 199:1 244:1 obj 1\\
0.06938775510204032: 198:1 203:1 225:1 obj 1\\
0.01632653061224654: 165:1 179:1 283:1 obj 1\\






File: BPP_500_750_0.1_0.8_3.txt  Instance No. 1
Wed Feb 25 13:43:03 2015

LP0 Time: 0.69 IPTime: 0.69 The best integer solution (220):

1: 0:1 277:1 obj 1\\
1: 0:1 278:1 obj 1\\
1: 1:1 276:1 obj 1\\
1: 2:1 275:1 obj 1\\
1: 3:1 274:1 obj 1\\
1: 4:1 276:1 obj 1\\
2: 5:1 273:1 obj 1\\
1: 6:1 272:1 obj 1\\
1: 6:1 273:1 obj 1\\
1: 7:1 271:1 obj 1\\
1: 8:1 319:1 327:1 obj 1\\
2: 9:1 269:1 obj 1\\
1: 10:1 270:1 obj 1\\
1: 12:1 267:1 obj 1\\
1: 13:1 266:1 obj 1\\
1: 14:1 265:1 obj 1\\
2: 15:1 264:1 obj 1\\
1: 16:1 262:1 obj 1\\
1: 16:1 263:1 obj 1\\
1: 17:1 260:1 obj 1\\
1: 17:1 261:1 obj 1\\
1: 18:1 259:1 obj 1\\
1: 19:1 257:1 obj 1\\
1: 20:1 256:1 obj 1\\
1: 21:1 255:1 obj 1\\
1: 22:1 254:1 obj 1\\
1: 23:1 248:1 obj 1\\
1: 24:1 247:1 obj 1\\
1: 25:1 246:1 obj 1\\
1: 26:1 240:1 obj 1\\
1: 27:1 241:1 obj 1\\
1: 27:1 242:1 obj 1\\
1: 28:1 239:1 obj 1\\
2: 29:1 238:1 obj 1\\
2: 30:1 237:1 obj 1\\
1: 31:1 236:1 obj 1\\
1: 32:1 235:1 obj 1\\
1: 34:1 233:1 obj 1\\
1: 35:1 232:1 obj 1\\
1: 36:1 231:1 obj 1\\
1: 37:1 230:1 obj 1\\
1: 38:1 229:1 obj 1\\
1: 39:1 228:1 obj 1\\
1: 40:1 226:1 obj 1\\
1: 44:1 218:1 obj 1\\
1: 45:1 214:1 obj 1\\
2: 46:1 213:1 obj 1\\
1: 47:1 213:1 obj 1\\
1: 48:1 212:1 obj 1\\
1: 49:1 214:1 obj 1\\
1: 51:1 211:1 obj 1\\
1: 52:1 209:1 obj 1\\
1: 53:1 206:1 obj 1\\
2: 54:1 205:1 obj 1\\
1: 55:1 204:1 obj 1\\
1: 55:1 207:1 obj 1\\
2: 56:1 202:1 obj 1\\
1: 57:1 203:1 obj 1\\
1: 58:1 201:1 obj 1\\
2: 59:1 200:1 obj 1\\
1: 60:1 200:1 obj 1\\
1: 61:1 197:1 obj 1\\
1: 62:1 197:1 obj 1\\
1: 63:1 196:1 obj 1\\
1: 63:1 197:1 obj 1\\
1: 64:1 193:1 obj 1\\
2: 65:1 192:1 obj 1\\
1: 66:1 194:1 obj 1\\
1: 67:1 191:1 obj 1\\
1: 69:1 190:1 obj 1\\
1: 70:1 189:1 obj 1\\
1: 72:1 254:1 311:1 obj 1\\
1: 74:1 187:1 obj 1\\
1: 76:1 185:1 obj 1\\
1: 78:1 183:1 obj 1\\
1: 79:1 181:1 obj 1\\
1: 80:1 180:1 obj 1\\
3: 81:1 179:1 obj 1\\
1: 82:1 178:1 obj 1\\
1: 83:1 177:1 obj 1\\
1: 85:1 175:1 obj 1\\
1: 85:1 179:1 obj 1\\
1: 86:1 173:1 obj 1\\
1: 87:1 172:1 obj 1\\
1: 88:1 170:1 obj 1\\
1: 89:1 171:1 obj 1\\
1: 89:1 172:1 obj 1\\
1: 90:1 234:1 310:1 obj 1\\
1: 91:1 169:1 obj 1\\
1: 92:1 168:1 obj 1\\
1: 93:1 167:1 obj 1\\
1: 94:1 166:1 obj 1\\
1: 95:1 164:1 obj 1\\
1: 96:1 163:1 obj 1\\
1: 97:1 160:1 obj 1\\
2: 97:1 161:1 obj 1\\
1: 98:1 162:1 obj 1\\
1: 99:1 158:1 obj 1\\
1: 99:1 159:1 obj 1\\
1: 100:1 220:1 313:1 obj 1\\
1: 101:1 156:1 obj 1\\
1: 102:1 157:1 obj 1\\
1: 104:1 155:1 obj 1\\
1: 105:1 155:1 obj 1\\
1: 106:1 154:1 obj 1\\
1: 107:1 153:1 obj 1\\
1: 108:1 219:1 305:1 obj 1\\
1: 109:1 152:1 obj 1\\
1: 109:1 216:1 307:1 obj 1\\
1: 110:1 210:1 312:1 obj 1\\
1: 110:1 223:1 301:1 obj 1\\
2: 112:1 151:1 obj 1\\
1: 113:1 150:1 obj 1\\
1: 115:1 149:1 obj 1\\
2: 116:1 148:1 obj 1\\
1: 118:1 225:1 293:1 obj 1\\
2: 119:1 147:1 obj 1\\
1: 120:1 224:1 292:1 obj 1\\
1: 121:1 145:1 obj 1\\
2: 123:1 144:1 obj 1\\
1: 124:1 143:1 obj 1\\
1: 125:1 142:1 obj 1\\
2: 126:1 141:1 obj 1\\
1: 128:1 137:1 obj 1\\
1: 129:1 136:1 obj 1\\
1: 132:1 135:1 obj 1\\
1: 133:1 134:1 obj 1\\
1: 165:2 295:1 obj 1\\
1: 127:1 139:1 obj 1\\
1: 11:1 269:1 obj 1\\
1: 74:1 188:1 obj 1\\
1: 85:1 176:1 obj 1\\
1: 128:1 140:1 obj 1\\
2: 77:1 185:1 obj 1\\
1: 111:1 230:1 292:1 obj 1\\
1: 120:1 227:1 285:1 obj 1\\
1: 71:1 189:1 obj 1\\
1: 84:1 178:1 obj 1\\
1: 107:1 221:1 304:1 obj 1\\
1: 75:1 256:1 306:1 obj 1\\
1: 12:1 268:1 obj 1\\
1: 19:1 258:1 obj 1\\
1: 27:1 240:1 obj 1\\
1: 72:1 280:1 287:1 obj 1\\
1: 109:1 234:1 291:1 obj 1\\
1: 118:1 198:1 318:1 obj 1\\
1: 128:1 138:1 obj 1\\
1: 9:1 270:1 obj 1\\
1: 25:1 296:1 324:1 obj 1\\
1: 33:1 235:1 obj 1\\
1: 72:1 252:1 314:1 obj 1\\
1: 79:1 182:1 obj 1\\
1: 130:1 199:1 304:1 obj 1\\
2: 14:1 266:1 obj 1\\
1: 41:1 297:1 303:1 obj 1\\
2: 68:1 191:1 obj 1\\
1: 71:1 279:1 290:1 obj 1\\
1: 72:1 281:1 286:1 obj 1\\
1: 73:1 251:1 314:1 obj 1\\
1: 85:1 254:1 298:1 obj 1\\
1: 110:1 225:1 299:1 obj 1\\
1: 122:1 145:1 obj 1\\
1: 130:1 215:1 288:1 obj 1\\
1: 167:1 174:1 285:1 obj 1\\
1: 31:1 300:1 312:1 obj 1\\
1: 72:1 253:1 313:1 obj 1\\
1: 120:1 146:1 obj 1\\
1: 23:1 249:1 obj 1\\
1: 100:1 216:1 317:1 obj 1\\
1: 116:1 198:1 319:1 obj 1\\
1: 131:1 186:1 320:1 obj 1\\
1: 141:1 184:1 309:1 obj 1\\
1: 49:1 292:1 298:1 obj 1\\
1: 68:1 280:1 291:1 obj 1\\
1: 74:1 254:1 308:1 obj 1\\
1: 99:1 227:1 305:1 obj 1\\
1: 103:1 209:1 323:1 obj 1\\
1: 107:1 229:1 295:1 obj 1\\
1: 130:1 182:1 325:1 obj 1\\
1: 179:1 198:1 250:1 obj 1\\
1: 31:1 289:1 326:1 obj 1\\
1: 42:1 283:1 319:1 obj 1\\
1: 50:1 294:2 obj 1\\
1: 100:1 217:1 316:1 obj 1\\
1: 108:1 223:1 302:1 obj 1\\
1: 167:1 216:1 243:1 obj 1\\
1: 173:1 216:1 234:1 obj 1\\
1: 195:1 208:1 224:1 obj 1\\
1: 69:1 282:1 286:1 obj 1\\
1: 75:1 245:1 317:1 obj 1\\
1: 114:1 198:1 321:1 obj 1\\
1: 186:1 219:1 222:1 obj 1\\
1: 117:1 210:1 305:1 obj 1\\
1: 43:1 289:1 312:1 obj 1\\
1: 122:1 203:1 313:1 obj 1\\
1: 99:1 218:1 322:1 obj 1\\
1: 25:1 314:1 315:1 obj 1\\
1: 90:1 210:1 obj 1\\
1: 244:1 284:1 obj 1\\



The last LP solution 


File: BPP_500_750_0.1_0.8_3.txt  Instance No. 1
Wed Feb 25 13:43:03 2015

LP solution: lpval=219.3278911564626 lpbnd=220

1: 0:1 277:1 obj 1\\
1: 0:1 278:1 obj 1\\
1: 1:1 276:1 obj 1\\
1: 2:1 275:1 obj 1\\
1: 3:1 274:1 obj 1\\
1: 4:1 276:1 obj 1\\
2: 5:1 273:1 obj 1\\
1: 6:1 272:1 obj 1\\
1: 6:1 273:1 obj 1\\
1: 7:1 271:1 obj 1\\
0.9306122448979597: 8:1 319:1 327:1 obj 1\\
2: 9:1 269:1 obj 1\\
1: 10:1 270:1 obj 1\\
1: 12:1 267:1 obj 1\\
1: 13:1 266:1 obj 1\\
1: 14:1 265:1 obj 1\\
2: 15:1 264:1 obj 1\\
1: 16:1 262:1 obj 1\\
1: 16:1 263:1 obj 1\\
1: 17:1 260:1 obj 1\\
1: 17:1 261:1 obj 1\\
1: 18:1 259:1 obj 1\\
1: 19:1 257:1 obj 1\\
1: 20:1 256:1 obj 1\\
1: 21:1 255:1 obj 1\\
1: 22:1 254:1 obj 1\\
1: 23:1 248:1 obj 1\\
1: 24:1 247:1 obj 1\\
1: 25:1 246:1 obj 1\\
1: 26:1 240:1 obj 1\\
1: 27:1 241:1 obj 1\\
1: 27:1 242:1 obj 1\\
1: 28:1 239:1 obj 1\\
2: 29:1 238:1 obj 1\\
2: 30:1 237:1 obj 1\\
1: 31:1 236:1 obj 1\\
1: 32:1 235:1 obj 1\\
1: 34:1 233:1 obj 1\\
1: 35:1 232:1 obj 1\\
1: 36:1 231:1 obj 1\\
1: 37:1 230:1 obj 1\\
1: 38:1 229:1 obj 1\\
1: 39:1 228:1 obj 1\\
1: 40:1 226:1 obj 1\\
1: 44:1 218:1 obj 1\\
1: 45:1 214:1 obj 1\\
2: 46:1 213:1 obj 1\\
1: 47:1 213:1 obj 1\\
1: 48:1 212:1 obj 1\\
1: 49:1 214:1 obj 1\\
1: 51:1 211:1 obj 1\\
1: 52:1 209:1 obj 1\\
1: 53:1 206:1 obj 1\\
2: 54:1 205:1 obj 1\\
1: 55:1 204:1 obj 1\\
1: 55:1 207:1 obj 1\\
2: 56:1 202:1 obj 1\\
1: 57:1 203:1 obj 1\\
1: 58:1 201:1 obj 1\\
2: 59:1 200:1 obj 1\\
1: 60:1 200:1 obj 1\\
1: 61:1 197:1 obj 1\\
1: 62:1 197:1 obj 1\\
1: 63:1 196:1 obj 1\\
1: 63:1 197:1 obj 1\\
1: 64:1 193:1 obj 1\\
2: 65:1 192:1 obj 1\\
1: 66:1 194:1 obj 1\\
1: 67:1 191:1 obj 1\\
0.04455782312925179: 68:1 254:1 314:1 obj 1\\
1: 69:1 190:1 obj 1\\
1: 70:1 189:1 obj 1\\
0.2374149659863946: 71:1 252:1 315:1 obj 1\\
1: 72:1 254:1 311:1 obj 1\\
1: 74:1 187:1 obj 1\\
1: 76:1 185:1 obj 1\\
1: 78:1 183:1 obj 1\\
1: 79:1 181:1 obj 1\\
1: 80:1 180:1 obj 1\\
3: 81:1 179:1 obj 1\\
1: 82:1 178:1 obj 1\\
1: 83:1 177:1 obj 1\\
1: 85:1 175:1 obj 1\\
0.9836734693877535: 85:1 179:1 obj 1\\
1: 86:1 173:1 obj 1\\
1: 87:1 172:1 obj 1\\
1: 88:1 170:1 obj 1\\
1: 89:1 171:1 obj 1\\
1: 89:1 172:1 obj 1\\
0.9554421768707482: 90:1 234:1 310:1 obj 1\\
1: 91:1 169:1 obj 1\\
1: 92:1 168:1 obj 1\\
1: 93:1 167:1 obj 1\\
1: 94:1 166:1 obj 1\\
1: 95:1 164:1 obj 1\\
1: 96:1 163:1 obj 1\\
1: 97:1 160:1 obj 1\\
2: 97:1 161:1 obj 1\\
1: 98:1 162:1 obj 1\\
1: 99:1 158:1 obj 1\\
1: 99:1 159:1 obj 1\\
0.8476190476190466: 100:1 220:1 313:1 obj 1\\
1: 101:1 156:1 obj 1\\
1: 102:1 157:1 obj 1\\
1: 104:1 155:1 obj 1\\
1: 105:1 155:1 obj 1\\
1: 106:1 154:1 obj 1\\
1: 107:1 153:1 obj 1\\
0.1095238095238095: 107:1 208:1 320:1 obj 1\\
0.9700680272108843: 108:1 219:1 305:1 obj 1\\
1: 109:1 152:1 obj 1\\
0.8261904761904769: 109:1 216:1 307:1 obj 1\\
1.405442176870749: 110:1 210:1 312:1 obj 1\\
0.5544217687074841: 110:1 223:1 301:1 obj 1\\
2: 112:1 151:1 obj 1\\
1: 113:1 150:1 obj 1\\
1: 115:1 149:1 obj 1\\
2: 116:1 148:1 obj 1\\
0.5986394557823135: 118:1 225:1 293:1 obj 1\\
2: 119:1 147:1 obj 1\\
0.6972789115646258: 120:1 224:1 292:1 obj 1\\
1: 121:1 145:1 obj 1\\
2: 123:1 144:1 obj 1\\
1: 124:1 143:1 obj 1\\
1: 125:1 142:1 obj 1\\
2: 126:1 141:1 obj 1\\
1: 128:1 137:1 obj 1\\
1: 129:1 136:1 obj 1\\
1: 132:1 135:1 obj 1\\
1: 133:1 134:1 obj 1\\
0.8115646258503386: 165:2 295:1 obj 1\\
1: 127:1 139:1 obj 1\\
1: 11:1 269:1 obj 1\\
1: 74:1 188:1 obj 1\\
1: 85:1 176:1 obj 1\\
1: 128:1 140:1 obj 1\\
0.2040816326530598: 50:1 290:1 299:1 obj 1\\
2: 77:1 185:1 obj 1\\
0.1292517006802713: 109:1 225:1 300:1 obj 1\\
0.8962585034013599: 111:1 230:1 292:1 obj 1\\
0.9357142857142859: 120:1 227:1 285:1 obj 1\\
0.06938775510204032: 8:1 321:1 324:1 obj 1\\
1: 71:1 189:1 obj 1\\
1: 84:1 178:1 obj 1\\
1: 107:1 221:1 304:1 obj 1\\
0.1738095238095235: 122:1 195:1 317:1 obj 1\\
0.5013605442176863: 75:1 256:1 306:1 obj 1\\
0.4306122448979597: 203:2 218:1 obj 1\\
1: 12:1 268:1 obj 1\\
1: 19:1 258:1 obj 1\\
1: 27:1 240:1 obj 1\\
0.5057823129251693: 69:1 254:1 313:1 obj 1\\
0.6102040816326522: 72:1 280:1 287:1 obj 1\\
0.5156462585033988: 99:1 223:1 312:1 obj 1\\
1.044557823129252: 109:1 234:1 291:1 obj 1\\
1: 118:1 198:1 318:1 obj 1\\
1: 128:1 138:1 obj 1\\
1: 9:1 270:1 obj 1\\
0.9306122448979597: 25:1 296:1 324:1 obj 1\\
1: 33:1 235:1 obj 1\\
0.004421768707482593: 42:1 293:1 308:1 obj 1\\
0.7625850340136054: 72:1 252:1 314:1 obj 1\\
1: 79:1 182:1 obj 1\\
0.1095238095238095: 103:1 244:1 290:1 obj 1\\
0.5986394557823135: 130:1 199:1 304:1 obj 1\\
0.06938775510204032: 130:1 217:1 286:1 obj 1\\
2: 14:1 266:1 obj 1\\
0.1972789115646248: 25:1 305:1 314:1 obj 1\\
0.8261904761904769: 41:1 297:1 303:1 obj 1\\
0.3897959183673478: 43:1 287:1 313:1 obj 1\\
2: 68:1 191:1 obj 1\\
0.418027210884353: 71:1 279:1 290:1 obj 1\\
1: 72:1 281:1 286:1 obj 1\\
1: 73:1 251:1 314:1 obj 1\\
0.6615646258503394: 85:1 254:1 298:1 obj 1\\
0.396938775510204: 99:1 244:1 293:1 obj 1\\
0.6326530612244916: 110:1 225:1 299:1 obj 1\\
1: 122:1 145:1 obj 1\\
0.8261904761904769: 130:1 215:1 288:1 obj 1\\
1: 167:1 174:1 285:1 obj 1\\
0.7670068027210886: 31:1 300:1 312:1 obj 1\\
0.9357142857142859: 72:1 253:1 313:1 obj 1\\
0.2510204081632668: 85:1 243:1 308:1 obj 1\\
0.1523809523809534: 99:1 220:1 314:1 obj 1\\
0.3955782312925172: 100:1 218:1 315:1 obj 1\\
0.1775510204081634: 107:1 219:1 306:1 obj 1\\
1: 120:1 146:1 obj 1\\
0.5057823129251693: 130:1 225:1 282:1 obj 1\\
1: 23:1 249:1 obj 1\\
0.4986394557823137: 90:1 256:1 292:1 obj 1\\
0.8261904761904765: 100:1 216:1 317:1 obj 1\\
0.203741496598639: 108:1 244:1 284:1 obj 1\\
1: 116:1 198:1 319:1 obj 1\\
0.4013605442176865: 118:1 210:1 304:1 obj 1\\
0.8904761904761905: 131:1 186:1 320:1 obj 1\\
0.1095238095238095: 131:1 209:1 294:1 obj 1\\
0.9357142857142859: 141:1 184:1 309:1 obj 1\\
0.02755102040816293: 25:1 301:1 319:1 obj 1\\
0.581972789115647: 49:1 292:1 298:1 obj 1\\
0.06088435374149598: 50:1 284:1 305:1 obj 1\\
0.9554421768707482: 68:1 280:1 291:1 obj 1\\
0.7445578231292507: 74:1 254:1 308:1 obj 1\\
0.4765306122448977: 90:1 224:1 322:1 obj 1\\
0.9350340136054437: 99:1 227:1 305:1 obj 1\\
0.8904761904761905: 103:1 209:1 323:1 obj 1\\
0.6435374149659867: 107:1 229:1 295:1 obj 1\\
0.1738095238095231: 110:1 218:1 303:1 obj 1\\
0.5448979591836745: 122:1 216:1 295:1 obj 1\\
1: 130:1 182:1 325:1 obj 1\\
1: 179:1 198:1 250:1 obj 1\\
0.06428571428571411: 184:1 219:1 225:1 obj 1\\
0.5234693877551022: 25:1 298:1 322:1 obj 1\\
1: 31:1 289:1 326:1 obj 1\\
0.682653061224488: 42:1 283:1 319:1 obj 1\\
0.4363945578231291: 43:1 286:1 314:1 obj 1\\
0.7350340136054442: 50:1 294:2 obj 1\\
0.04353741496598695: 71:1 254:1 312:1 obj 1\\
0.2554421768707493: 74:1 244:1 319:1 obj 1\\
0.9306122448979597: 100:1 217:1 316:1 obj 1\\
0.8261904761904769: 108:1 223:1 302:1 obj 1\\
0.06938775510204032: 114:1 203:1 316:1 obj 1\\
0.281292517006802: 122:1 222:1 292:1 obj 1\\
0.06428571428571411: 141:1 208:1 285:1 obj 1\\
0.6394557823129238: 167:1 216:1 243:1 obj 1\\
1: 173:1 216:1 234:1 obj 1\\
0.3564625850340132: 186:1 210:1 229:1 obj 1\\
0.8261904761904765: 195:1 208:1 224:1 obj 1\\
0.1738095238095231: 41:1 288:1 314:1 obj 1\\
0.2683673469387776: 42:1 290:1 312:1 obj 1\\
0.1738095238095231: 43:1 297:1 302:1 obj 1\\
0.418027210884353: 49:1 289:1 301:1 obj 1\\
0.4942176870748307: 69:1 282:1 286:1 obj 1\\
0.3010204081632655: 71:1 283:1 284:1 obj 1\\
0.1095238095238095: 72:1 243:1 323:1 obj 1\\
1: 75:1 245:1 317:1 obj 1\\
0.06938775510204032: 107:1 227:1 296:1 obj 1\\
0.1738095238095231: 110:1 215:1 307:1 obj 1\\
0.1037414965986401: 111:1 223:1 300:1 obj 1\\
0.9306122448979597: 114:1 198:1 321:1 obj 1\\
0.1632653061224486: 117:1 216:1 299:1 obj 1\\
0.3670068027210882: 120:1 199:1 315:1 obj 1\\
0.3605442176870762: 165:1 167:1 294:1 obj 1\\
0.718707482993198: 186:1 219:1 222:1 obj 1\\
0.3210884353741503: 25:1 306:1 313:1 obj 1\\
0.2329931972789114: 31:1 298:1 314:1 obj 1\\
0.04455782312925179: 42:1 292:1 310:1 obj 1\\
0.581972789115647: 72:1 279:1 289:1 obj 1\\
0.06428571428571411: 75:1 253:1 309:1 obj 1\\
0.4343537414965996: 75:1 280:1 284:1 obj 1\\
0.1037414965986401: 85:1 230:1 319:1 obj 1\\
0.06938775510204032: 90:1 219:1 327:1 obj 1\\
0.05986394557823005: 110:1 227:1 294:1 obj 1\\
0.8367346938775514: 117:1 210:1 305:1 obj 1\\
0.03435374149659831: 186:1 199:1 244:1 obj 1\\
0.06938775510204032: 198:1 203:1 225:1 obj 1\\
0.01632653061224654: 165:1 179:1 283:1 obj 1\\



